org.jcp.jsr331.tck.linear/results/GroupSizing.mps
NAME          GroupSizing
ROWS
 N  _OBJ_
 E  C1
 E  C2
COLUMNS
    M0000     'MARKER'                 'INTORG'
    Vi0                 C1                   1   
    Vi1                 C1                   1   
    Vi2                 C1                   1   
    Vi3                 C1                   1   
    Vi4                 C1                   1   
    Vi5                 C1                   1   
    Vi6                 C1                   1   
    Vi7                 C1                   1   
    Vi8                 C1                   1   
    Vi9                 C1                   1   
    Vi10                C1                   1   
    Vi11                C1                   1   
    Vi12                C1                  -1   C2                   1   
    M0001     'MARKER'                 'INTEND'
    Vi12                _OBJ_               -1   
RHS
    rhs                 C2                 210   
BOUNDS
 UP bnd                 Vi0                 19   
 LO bnd                 Vi0                 16   
 UP bnd                 Vi1                 19   
 LO bnd                 Vi1                 16   
 UP bnd                 Vi2                 19   
 LO bnd                 Vi2                 16   
 UP bnd                 Vi3                 19   
 LO bnd                 Vi3                 16   
 UP bnd                 Vi4                 19   
 LO bnd                 Vi4                 16   
 UP bnd                 Vi5                 19   
 LO bnd                 Vi5                 16   
 UP bnd                 Vi6                 19   
 LO bnd                 Vi6                 16   
 UP bnd                 Vi7                 19   
 LO bnd                 Vi7                 16   
 UP bnd                 Vi8                 19   
 LO bnd                 Vi8                 16   
 UP bnd                 Vi9                 19   
 LO bnd                 Vi9                 16   
 UP bnd                 Vi10                19   
 LO bnd                 Vi10                16   
 UP bnd                 Vi11                19   
 LO bnd                 Vi11                16   
 UP bnd                 Vi12               228   
 LO bnd                 Vi12               192   
ENDATA
