org.jcp.jsr331.tck.linear/results/GroupSizing.sol
solution status: optimal solution found
objective value:                                 -210
Vi11                                               19 	(obj:0)
Vi10                                               18 	(obj:0)
Vi9                                                17 	(obj:0)
Vi8                                                17 	(obj:0)
Vi7                                                18 	(obj:0)
Vi6                                                17 	(obj:0)
Vi5                                                17 	(obj:0)
Vi4                                                18 	(obj:0)
Vi3                                                17 	(obj:0)
Vi2                                                17 	(obj:0)
Vi1                                                18 	(obj:0)
Vi0                                                17 	(obj:0)
Vi12                                              210 	(obj:-1)
